[[96, 97, 87, 95, 86, 76, 85, 84, 94, 93, 92, 91, 83, 82, 73, 74, 75, 67, 68, 66, 65, 64, 56, 59, 58, 49, 57, 55, 47, 46, 38, 48, 39, 40, 41, 32, 31, 30, 29, 37, 28, 19, 21, 20, 11, 10, 2, 3, 4], [12, 13, 22, 23, 15, 14, 5, 6, 7, 8, 9, 18, 17, 16, 24, 25, 26, 27, 35, 36, 44, 34, 33, 43, 42, 45, 54, 53, 52, 51, 50, 60, 61, 62, 63, 71, 72, 81, 80, 70, 69, 78, 77, 79, 88, 89, 90, 99, 98]]